
  32    1
  10

   0   0   5 2 3 4 6 10 
   3   1   3 9 7 5 
   1   4   4 15 12 9 7 
   8   7   4 15 12 11 8 
  10   4   5 21 15 13 12 11 
  10   6   4 15 14 11 9 
   4   6   4 21 14 13 11 
   1   8   4 21 18 17 13 
   9   7   3 18 17 13 
   5   9   3 18 17 13 
   6   8   3 18 17 16 
   1   6   2 18 14 
   1   6   1 16 
  10   8   1 16 
   6   8   1 16 
   7   5   2 20 19 
   5   9   2 20 19 
   1   4   2 27 22 
   1   7   5 31 27 25 24 23 
   5   6   1 22 
   6  10   1 22 
   4   6   4 31 25 24 23 
   3   5   2 29 26 
   4   4   2 29 26 
   8   5   2 30 29 
   6   5   1 28 
   3   8   1 28 
   8   2   1 32
   3   6   1 32
   6   6   1 32
   2   4   1 32
   0   0   0 
